p cnf 91 377
12 13 -31 57 58 78 -79 0
-3 -16 -19 -23 -51 67 0
7 9 45 46 -48 55 0
10 20 21 22 -77 88 0
-3 -16 -19 -23 -51 -89 0
-4 -19 52 -78 -84 0
7 9 45 55 64 0
10 20 21 22 -77 0
11 12 -23 -28 57 0
-21 22 69 -77 88 0
-25 -27 -33 -34 -59 0
42 46 -60 83 -87 0
-42 46 60 83 -87 0
12 -31 57 58 -73 0
1 24 -32 59 0
2 24 -35 -61 0
3 4 19 -68 0
-3 -16 67 -68 0
-4 -63 78 84 0
-5 -6 62 -63 0
-5 -6 -65 74 0
8 -46 -47 -48 0
11 -15 -31 -80 0
12 -78 79 84 0
-12 -14 78 79 0
13 67 -68 85 0
-14 58 -73 76 0
-16 -50 68 -89 0
-17 -18 -19 -41 0
-18 -19 -38 -39 0
-19 -26 -28 31 0
-19 -66 -86 89 0
20 22 -38 53 0
-21 69 70 -72 0
-22 70 -71 72 0
23 -50 -51 -68 0
-23 25 30 36 0
-24 -25 -33 59 0
-25 -26 28 57 0
26 -27 -33 -34 0
-43 44 -48 87 0
-49 -50 -51 -68 0
1 7 45 60 0
2 3 24 59 0
2 -35 65 -74 0
3 19 68 -91 0
10 11 -27 57 0
-15 29 -30 -31 0
-16 -19 67 85 0
-16 -19 -89 91 0
-17 22 -41 -44 0
-18 -39 -40 -43 0
-19 -22 -41 -53 0
-19 -23 65 80 0
20 -41 53 -72 0
-25 -33 -36 63 0
-40 43 46 -87 0
-45 46 48 55 0
57 -73 76 80 0
1 10 60 0
1 24 -62 0
1 -35 59 0
-1 8 -10 0
-1 32 61 0
-1 -83 -88 0
2 3 56 0
2 5 -62 0
-2 35 61 0
3 4 16 0
3 85 -91 0
-3 -19 89 0
-3 50 67 0
4 25 33 0
4 -49 51 0
4 -52 63 0
5 -63 -78 0
5 78 -84 0
-5 35 84 0
6 -36 -37 0
-6 -35 36 0
7 8 83 0
-7 -8 -42 0
-7 -8 -45 0
-7 -23 -40 0
-8 -9 -46 0
-8 -18 -64 0
-8 -39 -54 0
-8 42 45 0
-8 -46 -64 0
10 34 -57 0
10 -70 88 0
-10 24 -26 0
-10 -24 -28 0
11 14 -63 0
-11 -15 80 0
12 26 34 0
13 -14 -31 0
13 67 -90 0
13 79 85 0
-13 -54 -70 0
-13 -67 -85 0
-13 68 90 0
14 -78 -79 0
15 -29 30 0
-16 -68 91 0
17 18 40 0
17 19 41 0
17 23 40 0
17 -71 77 0
-17 -23 -44 0
-17 -53 -77 0
18 21 69 0
18 39 41 0
18 47 64 0
-18 -47 81 0
-18 -60 -69 0
-18 -64 81 0
19 29 32 0
19 -30 -36 0
19 -32 -33 0
19 38 39 0
19 39 60 0
19 -50 51 0
19 -65 -76 0
19 75 -80 0
-19 -34 -56 0
-19 43 -74 0
-19 -66 86 0
20 -54 71 0
20 71 -72 0
-20 -22 53 0
-21 -42 -69 0
-22 -71 72 0
-22 72 -88 0
23 27 28 0
23 -30 -36 0
23 32 34 0
23 38 39 0
23 39 41 0
23 56 61 0
23 -75 -76 0
-23 51 81 0
-23 67 91 0
-23 -81 -85 0
-23 -86 91 0
-24 35 62 0
25 27 32 0
25 34 56 0
-28 37 52 0
29 30 57 0
-29 -30 37 0
-29 57 73 0
-32 33 37 0
-32 -56 61 0
36 -37 63 0
-36 37 63 0
38 70 72 0
-38 41 -54 0
-39 -48 -55 0
40 -43 45 0
40 -43 87 0
41 -53 -72 0
45 -55 -60 0
46 47 -64 0
46 -47 64 0
49 85 -86 0
50 66 67 0
-50 66 -89 0
51 -85 -91 0
-51 -67 -89 0
54 70 -72 0
-54 -70 71 0
56 -61 -74 0
57 76 -80 0
60 70 83 0
66 67 90 0
66 67 -90 0
66 86 -90 0
66 -89 91 0
-66 -86 -90 0
-68 -86 90 0
-74 -75 76 0
-81 85 -86 0
1 42 0
1 -42 0
1 63 0
1 86 0
1 -87 0
1 88 0
1 -88 0
-1 -11 0
-1 -24 0
-1 56 0
-1 -56 0
-1 -90 0
2 6 0
-2 35 0
-2 61 0
-2 -65 0
-2 78 0
3 7 0
3 33 0
3 35 0
3 42 0
3 50 0
3 -50 0
3 -56 0
3 69 0
3 -82 0
3 89 0
-3 50 0
-3 -68 0
-3 -89 0
4 -16 0
4 -51 0
4 -53 0
4 61 0
4 78 0
4 -78 0
4 -82 0
4 84 0
4 89 0
-4 -23 0
-4 82 0
5 -36 0
5 -52 0
5 -82 0
-5 61 0
-5 78 0
-5 -80 0
-5 82 0
6 35 0
6 -62 0
6 -82 0
-6 61 0
-6 82 0
7 48 0
7 -60 0
-7 -46 0
-7 -60 0
-7 87 0
8 9 0
8 -13 0
8 -45 0
8 64 0
8 -88 0
-8 -9 0
-8 10 0
-8 41 0
-8 55 0
-8 -55 0
-8 60 0
9 16 0
9 40 0
-9 -40 0
-9 43 0
-9 -45 0
10 -33 0
10 39 0
10 -56 0
10 -69 0
10 -70 0
10 -72 0
-10 -11 0
-10 15 0
-10 27 0
-10 83 0
11 -12 0
11 15 0
11 -19 0
11 28 0
11 34 0
11 -73 0
-11 -14 0
-11 30 0
-11 -57 0
-11 -79 0
-12 -13 0
-12 31 0
-12 -57 0
-12 -58 0
-12 73 0
-12 -78 0
13 51 0
13 -90 0
-13 -70 0
-13 -76 0
-13 80 0
-13 81 0
-13 86 0
-13 -91 0
14 30 0
14 -57 0
14 73 0
14 78 0
14 79 0
-14 -76 0
15 31 0
15 -57 0
15 58 0
15 -58 0
-15 58 0
-15 76 0
16 23 0
16 49 0
16 50 0
16 51 0
-16 -50 0
17 44 0
17 -71 0
-17 40 0
-17 -69 0
-17 77 0
18 48 0
18 -69 0
-18 -40 0
-18 -72 0
19 21 0
19 -51 0
19 56 0
19 64 0
19 69 0
19 74 0
19 90 0
-19 -27 0
-19 30 0
-19 -47 0
-19 -57 0
-19 59 0
-19 -60 0
-19 61 0
-19 -64 0
-19 65 0
-19 79 0
-19 -79 0
-19 -81 0
-19 -87 0
-19 -88 0
-19 91 0
20 -54 0
20 -69 0
20 -72 0
20 88 0
-20 -21 0
-20 -53 0
-20 69 0
-20 77 0
21 -72 0
21 88 0
21 -88 0
-21 42 0
-21 -51 0
-21 -60 0
-21 -69 0
22 38 0
22 41 0
22 54 0
22 -55 0
22 -69 0
22 71 0
22 88 0
-22 -88 0
23 26 0
23 42 0
23 47 0
23 48 0
23 59 0
23 64 0
23 68 0
23 -80 0
23 -91 0
-23 -24 0
-23 -26 0
-23 -38 0
-23 -48 0
-23 57 0
-23 67 0
